(declare-sort $$unsorted 0)
(declare-fun tptp.op ($$unsorted $$unsorted) $$unsorted)
(assert (forall ((X0 $$unsorted) (X1 $$unsorted) (X2 $$unsorted) (X3 $$unsorted)) (let ((_let_1 (tptp.op X1 X2))) (= (tptp.op X0 _let_1) (tptp.op _let_1 X1)))))
(assert (not (forall ((X0 $$unsorted) (X1 $$unsorted) (X2 $$unsorted) (X3 $$unsorted)) (= (tptp.op X0 (tptp.op X1 X2)) (tptp.op (tptp.op X3 X0) X3)))))
(set-info :filename Equation4532_implies_Equation4560)
(check-sat-assuming ( true ))
